data/lp_files/pEFS/43_5.lp
\ Model foo
\ LP format - for model browsing. Use MPS format to capture full model detail.
Minimize
  z
Subject To
 allocateEach[1]: x[1,1] + x[2,1] + x[3,1] = 1
 allocateEach[2]: x[1,2] + x[2,2] + x[3,2] = 1
 allocateEach[3]: x[1,3] + x[2,3] + x[3,3] = 1
 allocateAllCash: cashProportion[1] + cashProportion[2] + cashProportion[3]
   = 1
 findWorstP[1,2]: z + 0.1107665042091271 cashProportion[1]
   - 0.1107665042091271 cashProportion[2] + 0.3514251956874907 x[1,1]
   + 0.3242504799881848 x[1,2] + 0.2135578201151971 x[1,3]
   - 0.3514251956874907 x[2,1] - 0.3242504799881848 x[2,2]
   - 0.2135578201151971 x[2,3] >= 0
 findWorstP[1,3]: z + 0.1107665042091271 cashProportion[1]
   - 0.1107665042091271 cashProportion[3] + 0.3514251956874907 x[1,1]
   + 0.3242504799881848 x[1,2] + 0.2135578201151971 x[1,3]
   - 0.3514251956874907 x[3,1] - 0.3242504799881848 x[3,2]
   - 0.2135578201151971 x[3,3] >= 0
 findWorstP[2,1]: z - 0.1483679525222552 cashProportion[1]
   + 0.1483679525222552 cashProportion[2] - 0.0126607319485658 x[1,1]
   - 0.4280909990108804 x[1,2] - 0.4108803165182988 x[1,3]
   + 0.0126607319485658 x[2,1] + 0.4280909990108804 x[2,2]
   + 0.4108803165182988 x[2,3] >= 0
 findWorstP[2,3]: z + 0.1483679525222552 cashProportion[2]
   - 0.1483679525222552 cashProportion[3] + 0.0126607319485658 x[2,1]
   + 0.4280909990108804 x[2,2] + 0.4108803165182988 x[2,3]
   - 0.0126607319485658 x[3,1] - 0.4280909990108804 x[3,2]
   - 0.4108803165182988 x[3,3] >= 0
 findWorstP[3,1]: z - 0.1709401709401709 cashProportion[1]
   + 0.1709401709401709 cashProportion[3] - 0.2066666666666667 x[1,1]
   - 0.3640455840455841 x[1,2] - 0.2583475783475784 x[1,3]
   + 0.2066666666666667 x[3,1] + 0.3640455840455841 x[3,2]
   + 0.2583475783475784 x[3,3] >= 0
 findWorstP[3,2]: z - 0.1709401709401709 cashProportion[2]
   + 0.1709401709401709 cashProportion[3] - 0.2066666666666667 x[2,1]
   - 0.3640455840455841 x[2,2] - 0.2583475783475784 x[2,3]
   + 0.2066666666666667 x[3,1] + 0.3640455840455841 x[3,2]
   + 0.2583475783475784 x[3,3] >= 0
Bounds
 z <= 1
 -infinity <= cashProportion[1] <= 1
 -infinity <= cashProportion[2] <= 1
 -infinity <= cashProportion[3] <= 1
Binaries
 x[1,1] x[1,2] x[1,3] x[2,1] x[2,2] x[2,3] x[3,1] x[3,2] x[3,3]
End
